Minimize
  171 C157 + 171 C158 + 171 C159 + 171 C160 + 163 C161 + 162 C162 + 163 C163
   + 69 C164 + 69 C165 + 183 C166 + 183 C167 + 183 C168 + 183 C169
   + 49 C170 + 183 C171 + 258 C172 + 517 C173 + 250 C174 + 500 C175
   + 250 C176 + 500 C177 + 159 C178 + 318 C179 + 159 C180 + 318 C181
   + 159 C182 + 318 C183 + 159 C184 + 318 C185 + 114 C186 + 228 C187
   + 159 C188 + 318 C189
Subject To
 R114: C157 + C158 + C159 + C160 <= 1
 R115: C161 + C162 + C163 <= 1
 R116: C164 + C165 <= 1
 R117: C166 + C167 + C168 + C169 + C171 <= 1
 R118: - 230 C166 - 200 C172 - 400 C173 <= -5
 R119: 300 C159 + 300 C160 + 285 C161 + 285 C162 + 265 C164 + 265 C165
   + 230 C168 + 230 C169 + 190 C170 + 200 C178 + 400 C179 + 200 C180
   + 400 C181 + 200 C182 + 400 C183 + 200 C184 + 400 C185 + 200 C186
   + 400 C187 <= 2700
 R120: - 300 C159 - 300 C160 - 285 C161 - 285 C162 - 265 C164 - 265 C165
   - 230 C168 - 230 C169 - 190 C170 - 200 C178 - 400 C179 - 200 C180
   - 400 C181 - 200 C182 - 400 C183 - 200 C184 - 400 C185 - 200 C186
   - 400 C187 <= -2600
 R121: - 300 C160 - 200 C186 - 400 C187 <= -100
 R122: - 300 C157 - 285 C162 - 265 C165 - 190 C170 - 200 C182 - 400 C183
   <= -900
 R123: - 300 C157 - 300 C159 - 285 C162 - 265 C165 - 230 C169 - 190 C170
   - 200 C182 - 400 C183 - 200 C184 - 400 C185 <= -1656
 R124: - 285 C161 - 265 C164 - 230 C167 - 200 C178 - 400 C179 <= -335
 R125: - 285 C161 - 265 C164 - 230 C167 - 230 C168 - 200 C178 - 400 C179
   - 200 C180 - 400 C181 <= -1026
 R126: - 300 C158 - 200 C174 - 400 C175 <= -5
 R127: - 300 C158 - 200 C174 - 400 C175 - 200 C176 - 400 C177 <= -500
 R128: - 285 C163 - 200 C188 - 400 C189 <= -270
 ZBESTROW: <= 0
Bounds
 C157 <= 1
 C158 <= 1
 C159 <= 1
 C160 <= 1
 C161 <= 1
 C162 <= 1
 C163 <= 1
 C164 <= 1
 C165 <= 1
 C166 <= 1
 C167 <= 1
 C168 <= 1
 C169 <= 1
 C170 <= 1
 C171 <= 1
 C172 <= 1
 C173 <= 1
 C174 <= 1
 C175 <= 1
 C176 <= 1
 C177 <= 1
 C178 <= 1
 C179 <= 1
 C180 <= 1
 C181 <= 1
 C182 <= 1
 C183 <= 1
 C184 <= 1
 C185 <= 1
 C186 <= 1
 C187 <= 1
 C188 <= 1
 C189 <= 1
Binaries
 C157 C158 C159 C160 C161 C162 C163 C164 C165 C166 C167 C168 C169 C170 C171
 C172 C173 C174 C175 C176 C177 C178 C179 C180 C181 C182 C183 C184 C185 C186
 C187 C188 C189
End
